0 0 0 0
0 1 0 5
0 2 1 0
0 3 0 0
0 4 0 8
0 5 0 5
0 6 0 8
0 7 2 9
0 8 0 21
0 9 1 9
0 10 1 13
0 11 0 27
0 12 0 19
0 13 1 15
0 14 1 27
0 15 0 29
0 16 1 20
0 17 2 27
0 18 2 30
0 19 0 37
0 20 0 33
0 21 1 30
0 22 0 40
0 23 1 29
0 24 0 32
0 25 0 39
0 26 0 40
0 27 0 39
0 28 0 41
0 29 0 38
0 30 0 41
0 31 0 42
